C
   1.0
     0.0000000000000000    1.7868550000000001    1.7868550000000001
     1.7868550000000001    0.0000000000000000    1.7868550000000001
     1.7868550000000001    1.7868550000000001    0.0000000000000000
C
   2
Direct
  0.0000000000000000  0.0000000000000000  0.0000000000000000
  0.2500000000000000  0.2500000000000000  0.2500000000000000
